NAME : CMT13X
TYPE : MVRPB
DIMENSION : 121
VEHICLES : 11
CAPACITY : 20000
DISTANCE : 720
EDGE_WEIGHT_TYPE : EXACT_2D
NODE_COORD_SECTION
1 10 45
2 25 1
3 25 3
4 31 5
5 32 5
6 31 7
7 32 9
8 34 9
9 46 9
10 35 7
11 34 6
12 35 5
13 47 6
14 40 5
15 39 3
16 36 3
17 73 6
18 73 8
19 24 36
20 76 6
21 76 10
22 76 13
23 78 3
24 78 9
25 79 3
26 79 5
27 79 11
28 82 3
29 82 7
30 90 15
31 84 3
32 84 5
33 84 9
34 85 1
35 87 5
36 85 8
37 87 7
38 86 41
39 86 44
40 86 46
41 85 55
42 89 43
43 89 46
44 89 52
45 92 42
46 92 52
47 94 42
48 94 44
49 94 48
50 96 42
51 99 46
52 99 50
53 83 80
54 83 83
55 85 81
56 85 85
57 85 89
58 87 80
59 87 86
60 90 77
61 90 88
62 93 82
63 93 84
64 93 89
65 94 86
66 95 80
67 99 89
68 37 83
69 50 80
70 35 85
71 35 87
72 44 86
73 46 89
74 46 83
75 46 87
76 46 89
77 48 83
78 50 85
79 50 88
80 54 86
81 54 90
82 10 35
83 10 40
84 18 30
85 17 35
86 16 38
87 14 40
88 15 42
89 11 42
90 18 40
91 21 39
92 20 40
93 18 41
94 20 44
95 22 44
96 16 45
97 20 45
98 25 45
99 30 55
100 20 50
101 22 51
102 18 49
103 16 48
104 20 55
105 18 53
106 14 50
107 15 51
108 16 54
109 28 33
110 33 38
111 30 50
112 13 40
113 15 36
114 18 31
115 25 37
116 30 46
117 25 52
118 16 33
119 25 35
120 5 40
121 5 50
PICKUP_AND_DELIVERY_SECTION
1 0 0 10000000 50 0 0
2 0 0 10000000 50 2400 100
3 0 0 10000000 50 616 84
4 0 0 10000000 50 1090 210
5 0 0 10000000 50 506 94
6 0 0 10000000 50 1084 316
7 0 0 10000000 50 359 141
8 0 0 10000000 50 809 291
9 0 0 10000000 50 1528 372
10 0 0 10000000 50 400 100
11 0 0 10000000 50 1235 265
12 0 0 10000000 50 1286 214
13 0 0 10000000 50 1483 217
14 0 0 10000000 50 1138 163
15 0 0 10000000 50 1108 92
16 0 0 10000000 50 1650 150
17 0 0 10000000 50 1193 107
18 0 0 10000000 50 1603 197
19 0 0 10000000 50 400 800
20 0 0 10000000 50 1566 134
21 0 0 10000000 50 347 53
22 0 0 10000000 50 580 120
23 0 0 10000000 50 1154 46
24 0 0 10000000 50 1150 150
25 0 0 10000000 50 770 30
26 0 0 10000000 50 1499 101
27 0 0 10000000 50 1291 209
28 0 0 10000000 50 578 22
29 0 0 10000000 50 457 43
30 0 0 10000000 50 750 150
31 0 0 10000000 50 1061 39
32 0 0 10000000 50 940 60
33 0 0 10000000 50 268 32
34 0 0 10000000 50 692 8
35 0 0 10000000 50 189 11
36 0 0 10000000 50 362 38
37 0 0 10000000 50 368 32
38 0 0 10000000 50 942 858
39 0 0 10000000 50 684 716
40 0 0 10000000 50 558 642
41 0 0 10000000 50 600 1100
42 0 0 10000000 50 1034 966
43 0 0 10000000 50 676 724
44 0 0 10000000 50 665 935
45 0 0 10000000 50 543 457
46 0 0 10000000 50 391 509
47 0 0 10000000 50 609 491
48 0 0 10000000 50 372 328
49 0 0 10000000 50 636 664
50 0 0 10000000 50 281 219
51 0 0 10000000 50 214 186
52 0 0 10000000 50 1039 1061
53 0 0 10000000 50 47 1253
54 0 0 10000000 50 0 1100
55 0 0 10000000 50 56 1144
56 0 0 10000000 50 0 1400
57 0 0 10000000 50 45 955
58 0 0 10000000 50 64 736
59 0 0 10000000 50 18 1582
60 0 0 10000000 50 274 1626
61 0 0 10000000 50 11 489
62 0 0 10000000 50 201 1499
63 0 0 10000000 50 68 632
64 0 0 10000000 50 69 1531
65 0 0 10000000 50 119 1281
66 0 0 10000000 50 268 1432
67 0 0 10000000 50 131 1169
68 0 0 10000000 50 942 758
69 0 0 10000000 50 488 813
70 0 0 10000000 50 824 576
71 0 0 10000000 50 956 644
72 0 0 10000000 50 342 358
73 0 0 10000000 50 628 672
74 0 0 10000000 50 401 499
75 0 0 10000000 50 518 582
76 0 0 10000000 50 1691 1809
77 0 0 10000000 50 211 289
78 0 0 10000000 50 1153 1647
79 0 0 10000000 50 302 398
80 0 0 10000000 50 112 188
81 0 0 10000000 50 400 600
82 0 0 10000000 50 500 200
83 0 0 10000000 50 900 300
84 0 0 10000000 50 440 660
85 0 0 10000000 50 514 486
86 0 0 10000000 50 463 337
87 0 0 10000000 50 715 385
88 0 0 10000000 50 1350 750
89 0 0 10000000 50 295 105
90 0 0 10000000 50 825 675
91 0 0 10000000 50 738 862
92 0 0 10000000 50 200 200
93 0 0 10000000 50 898 702
94 0 0 10000000 50 382 318
95 0 0 10000000 50 500 500
96 0 0 10000000 50 580 320
97 0 0 10000000 50 611 489
98 0 0 10000000 50 756 944
99 0 0 10000000 50 545 655
100 0 0 10000000 50 660 440
101 0 0 10000000 50 398 302
102 0 0 10000000 50 569 331
103 0 0 10000000 50 733 367
104 0 0 10000000 50 764 436
105 0 0 10000000 50 462 238
106 0 0 10000000 50 576 224
107 0 0 10000000 50 424 176
108 0 0 10000000 50 352 148
109 0 0 10000000 50 182 1018
110 0 0 10000000 50 171 1129
111 0 0 10000000 50 280 420
112 0 0 10000000 50 473 228
113 0 0 10000000 50 467 333
114 0 0 10000000 50 461 639
115 0 0 10000000 50 422 878
116 0 0 10000000 50 383 717
117 0 0 10000000 50 519 481
118 0 0 10000000 50 361 339
119 0 0 10000000 50 114 286
120 0 0 10000000 50 1750 250
121 0 0 10000000 50 1170 130
DEPOT_SECTION
1 
-1
EOF
